150 20
1
41 79 28 54 52 42 31 86 57 23 68 64 17 70 68 75 96 80 2 74 39 38 54 0 9 75 44 52 81 47 69 48 38 36 4 75 39 93 62 45 75 42 32 1 47 34 42 42 74 42 46 79 90 40 80 43 92 64 63 44 2 22 24 44 83 94 77 7 83 99 53 62 29 84 8 74 41 34 46 61 75 72 55 85 68 47 7 56 85 86 70 19 43 70 96 86 21 11 43 67 96 29 21 81 69 91 1 33 40 43 51 94 82 54 79 51 45 93 4 56 48 20 16 53 85 66 20 56 24 43 84 63 15 97 24 88 91 61 3 19 12 44 74 9 63 92 46 95 87 13
823 546 446 841 780 666 787 936 567 754 497 814 584 414 535 653 806 748 559 552
59 0 0 0 0 0 0 0 17 35 0 0 0 0 79 0 0 0 0 0 87 0 0 0 0 0 0 0 76 0 0 0 0 0 80 0 0 0 0 0 75 0 0 94 0 0 0 0 0 0 0 43 82 0 0 0 0 0 0 0 0 0 0 0 0 0 0 0 0 0 66 0 0 0 0 0 0 0 0 0 0 0 3 60 0 0 83 88 0 0 6 0 0 0 0 0 69 73 0 0 0 0 81 0 8 0 21 0 0 0 0 0 0 5 70 0 0 0 0 0 0 0 0 0 0 0 0 0 0 0 0 0 0 3 0 0 0 0 0 0 0 0 0 24 3 69 0 0 0 0
0 0 0 0 0 0 0 0 0 0 81 29 0 0 32 0 0 0 0 0 0 0 0 0 0 0 0 0 0 0 0 0 0 0 0 0 0 0 0 0 0 65 0 0 0 0 0 87 0 0 0 0 0 0 0 0 0 12 0 0 0 0 33 0 0 0 0 0 0 20 0 0 72 18 0 0 0 28 24 0 0 0 83 0 0 0 0 0 0 0 0 0 0 0 0 0 0 0 0 0 0 12 0 0 23 0 5 38 0 0 0 0 0 75 0 0 0 0 0 0 0 0 0 0 0 0 0 0 0 0 0 0 0 0 13 94 92 0 0 0 0 0 0 0 0 0 0 0 0 0
0 0 0 0 0 0 0 0 0 0 0 0 0 0 5 0 0 0 0 0 0 0 0 0 0 0 0 0 0 0 0 0 0 0 0 0 0 0 0 0 9 0 0 0 0 0 0 0 0 0 0 7 0 0 0 0 0 0 11 0 0 0 0 0 0 0 0 0 0 0 0 0 0 0 0 0 0 0 0 29 0 0 0 0 0 0 0 0 0 0 0 60 0 41 0 0 0 0 0 0 0 29 0 0 0 0 0 0 0 29 0 23 0 0 87 0 63 0 89 0 0 0 0 0 0 80 0 0 19 22 0 0 33 0 0 0 0 54 0 82 0 0 0 0 0 0 0 0 0 0
36 0 0 38 0 0 0 0 84 0 0 0 0 0 0 0 3 77 0 0 0 26 0 0 0 0 0 0 0 0 89 85 0 0 0 0 0 0 19 0 0 0 97 0 0 6 0 0 0 0 0 0 0 0 0 0 0 0 5 0 0 0 0 0 0 0 0 0 0 0 0 0 55 0 68 0 0 0 11 0 0 0 0 0 0 0 78 0 0 0 0 60 0 59 1 0 0 0 64 0 88 73 0 0 0 0 0 0 55 0 0 0 0 0 0 0 0 0 0 11 25 0 0 0 0 16 0 0 0 0 44 0 0 0 83 0 23 0 31 22 0 0 0 0 0 51 0 0 0 0
0 21 0 0 80 0 0 0 96 0 0 0 0 0 0 0 71 0 0 0 0 0 0 0 0 78 0 20 0 55 0 0 0 0 0 0 0 0 0 0 4 0 0 0 0 0 0 0 0 0 66 0 0 0 0 64 0 22 0 0 34 0 0 0 0 32 0 0 0 41 0 0 0 0 0 0 0 0 0 0 0 0 0 0 7 0 0 87 0 0 0 0 94 0 0 17 0 0 0 0 0 67 0 0 98 0 0 0 0 0 0 0 0 0 0 59 0 95 0 56 0 0 0 0 0 0 0 0 0 0 0 0 0 0 0 0 0 0 0 0 0 0 0 0 50 0 76 0 0 0
0 82 0 0 0 0 0 0 0 0 0 0 0 0 0 0 0 0 30 0 0 0 0 0 0 0 60 0 0 0 0 0 0 0 0 56 0 0 0 0 0 0 0 24 16 0 98 13 0 0 0 0 0 0 39 0 0 0 0 0 0 0 0 0 0 0 0 66 0 0 0 0 47 0 0 0 0 0 9 0 18 0 53 0 0 0 0 0 0 0 19 0 0 0 0 56 66 0 0 0 0 0 0 0 0 40 0 0 0 22 0 0 0 0 0 0 0 0 0 0 56 18 0 0 0 0 0 0 0 0 0 0 0 94 84 0 0 44 0 0 0 27 0 0 0 0 0 0 48 0
0 5 0 0 28 0 68 85 72 0 0 0 99 0 0 0 0 0 0 0 0 0 0 0 0 0 0 0 0 45 80 0 0 0 0 0 0 0 0 98 0 0 0 0 0 0 0 0 0 0 82 0 0 0 0 0 0 0 0 0 29 0 0 0 0 80 0 63 0 0 0 0 0 83 0 0 0 0 22 0 0 0 0 0 0 0 0 0 0 0 0 0 0 0 0 0 0 0 74 0 0 0 50 0 0 0 0 59 0 0 0 0 0 0 0 0 0 0 0 0 0 0 29 0 0 0 0 64 0 0 0 0 17 0 0 0 0 0 73 31 0 73 0 0 0 0 0 0 0 0
28 0 0 50 0 0 0 0 0 0 67 0 0 0 0 7 0 0 0 0 89 0 0 0 0 0 0 0 0 0 3 0 77 0 0 0 0 0 12 0 98 0 0 0 0 0 0 0 45 0 37 0 0 0 0 4 0 0 40 0 10 0 78 0 0 0 0 0 0 0 0 0 95 0 0 0 0 0 0 0 0 0 0 70 0 86 0 0 0 0 0 0 37 0 0 0 0 0 40 89 0 0 0 0 0 84 0 0 0 38 0 0 0 0 0 0 0 0 0 85 0 0 0 0 0 0 0 89 0 0 85 0 9 0 0 0 0 0 54 36 0 19 0 84 0 0 0 0 16 0
0 0 0 0 0 0 0 0 74 0 0 0 0 0 0 0 0 58 5 73 0 12 0 0 0 15 0 0 0 0 0 0 0 0 0 0 0 0 0 0 0 0 0 0 9 11 99 0 0 0 0 99 46 0 0 0 0 0 0 0 13 0 0 0 0 42 0 75 0 0 0 0 0 0 18 0 0 0 0 0 0 0 0 0 0 0 0 0 0 0 0 76 0 50 0 24 0 0 0 0 52 0 0 0 0 0 0 0 0 0 0 0 0 0 0 0 0 0 0 65 0 0 0 0 0 0 50 0 0 0 0 0 49 0 0 0 0 0 0 0 0 0 0 0 0 0 0 0 0 0
0 0 0 0 0 0 0 0 0 0 19 0 0 0 0 0 22 0 0 0 0 72 89 38 0 97 0 0 0 0 0 0 0 0 0 0 0 95 0 0 51 0 0 0 0 0 69 0 0 0 0 0 0 0 0 0 0 0 0 0 0 0 47 0 90 0 68 0 0 0 0 86 0 81 0 0 0 0 0 47 0 0 0 0 0 0 0 0 0 0 0 0 0 0 9 0 0 0 0 0 66 0 0 0 64 0 0 0 37 0 0 0 0 0 0 0 0 0 0 82 0 0 0 0 0 0 0 0 0 0 0 0 0 0 0 0 0 96 0 0 0 0 0 0 0 0 0 0 0 23
0 0 0 0 0 0 15 0 0 0 0 0 0 0 0 0 0 0 0 0 0 6 0 81 0 0 0 20 0 0 0 0 80 0 0 0 27 0 20 0 0 0 0 0 0 0 0 0 0 24 0 0 0 0 0 0 97 0 0 0 0 0 11 0 0 0 0 42 0 0 0 0 0 25 0 0 0 0 0 0 0 0 0 0 37 0 0 16 0 0 0 0 0 0 0 68 24 0 97 0 0 0 0 0 0 0 0 3 0 0 0 0 0 0 0 0 0 0 0 0 0 0 0 0 0 0 0 17 0 0 78 0 0 0 0 0 0 0 0 0 0 17 29 0 0 0 21 0 0 0
0 0 0 0 86 0 0 22 0 0 0 0 0 0 54 0 0 0 0 0 0 0 0 0 0 0 0 0 0 27 0 0 0 0 72 0 0 0 0 0 0 0 3 0 0 0 29 0 0 0 0 0 0 90 0 97 11 0 0 0 0 0 32 0 0 0 45 0 0 0 0 0 0 0 0 0 11 0 0 0 0 0 0 30 0 0 35 0 0 0 0 0 0 63 0 0 0 0 26 0 50 0 0 17 71 0 0 0 92 0 0 0 67 0 0 0 0 0 97 55 0 46 0 49 0 65 0 0 0 61 0 0 0 10 0 14 0 0 0 0 14 0 51 0 0 0 0 0 0 0
0 0 0 0 0 12 0 0 0 0 0 0 0 0 1 0 0 0 0 0 0 0 0 0 0 0 0 0 0 0 0 0 0 0 0 0 89 0 0 0 0 0 0 43 0 0 92 72 58 0 0 0 0 0 0 37 0 49 20 0 0 0 0 92 0 0 0 0 0 71 0 0 0 30 0 0 5 59 0 0 0 0 0 89 0 0 0 0 0 90 0 0 0 0 0 0 0 0 0 0 0 0 0 0 0 0 0 0 0 0 0 0 0 0 25 0 0 0 0 0 0 0 0 0 10 0 0 0 0 0 0 0 0 0 0 0 44 0 0 0 0 0 36 0 0 0 0 0 0 0
0 0 0 0 0 0 0 55 0 0 0 0 0 59 0 0 0 0 76 0 0 48 0 0 0 0 0 0 10 0 0 0 0 0 0 0 0 0 0 0 0 0 0 0 0 0 0 0 69 0 0 10 5 0 0 67 0 18 0 0 0 0 0 0 0 0 0 0 0 0 0 0 0 0 0 0 0 0 0 0 0 0 16 0 0 0 0 0 0 0 0 0 0 0 0 2 0 0 13 63 0 0 0 0 0 0 0 0 0 0 0 0 0 0 0 0 0 16 0 0 0 0 0 0 0 0 0 0 0 0 0 0 0 0 20 0 0 61 0 0 73 0 0 0 23 0 0 0 0 0
0 0 0 0 34 0 0 0 0 0 0 0 0 11 0 0 0 0 0 0 0 0 0 0 0 0 0 0 0 0 0 0 0 0 0 23 0 0 43 0 0 0 17 0 94 0 0 2 0 0 0 0 0 0 0 0 13 0 0 0 0 0 0 0 0 63 0 0 0 0 0 12 0 0 0 9 0 0 76 0 0 24 0 0 0 0 0 0 0 0 0 21 0 0 0 0 0 91 0 0 0 0 0 0 0 0 0 16 0 0 0 0 0 58 0 0 58 0 0 0 0 0 0 0 0 0 0 0 0 0 0 0 0 0 0 0 0 0 0 0 0 34 94 0 0 0 80 0 50 0
0 0 0 0 0 0 0 0 0 0 0 0 0 73 0 0 0 0 0 0 0 0 0 0 0 0 0 88 0 43 0 0 0 0 0 0 0 97 0 0 0 3 0 0 0 0 0 0 0 0 0 0 0 0 0 0 0 15 0 0 44 0 0 0 0 0 0 0 0 71 0 95 0 0 0 0 0 0 0 0 0 0 0 0 0 0 0 0 0 71 0 0 0 0 0 46 0 0 0 0 0 0 0 0 0 0 76 0 0 0 0 0 0 0 0 0 70 0 71 0 0 84 0 0 0 0 0 0 0 40 0 0 0 0 0 0 0 0 58 0 0 0 0 0 0 0 0 0 0 91
0 0 0 0 0 0 31 0 55 0 37 0 23 0 0 0 0 0 0 0 0 0 0 0 0 0 0 94 0 0 0 0 0 0 0 0 18 74 0 0 64 0 0 0 0 0 0 24 82 0 0 0 0 0 0 0 0 0 78 0 0 0 0 0 0 32 0 0 0 0 82 0 0 0 0 0 20 99 0 98 0 0 0 0 0 0 0 0 0 0 0 0 0 0 13 0 0 74 0 0 0 0 0 11 0 0 0 0 30 0 0 0 0 0 9 0 0 0 0 0 0 0 0 0 25 84 76 0 0 0 0 0 0 79 0 0 0 0 0 0 0 0 0 0 0 47 0 68 0 0
0 0 0 0 0 0 0 0 0 28 0 89 5 66 35 0 0 0 0 0 0 94 0 0 0 0 65 0 26 0 0 97 0 0 0 0 0 0 0 99 0 26 0 0 0 0 0 0 0 0 0 0 0 0 0 0 0 0 0 0 0 0 0 0 32 0 0 0 0 0 0 0 0 0 35 0 0 0 0 0 1 0 0 0 0 0 0 0 5 0 0 0 0 83 0 0 0 0 0 0 0 0 0 0 0 74 0 0 10 43 6 71 0 0 0 0 0 0 0 0 18 0 0 0 0 0 0 0 0 0 0 0 0 0 0 0 0 0 0 0 0 0 0 0 33 0 93 79 89 24
0 0 0 0 0 0 0 0 0 0 0 0 0 0 0 0 0 0 0 0 0 0 0 0 0 0 0 0 0 0 0 0 0 0 17 0 0 0 0 0 0 0 0 0 0 0 0 0 0 0 0 0 0 0 0 0 0 0 0 74 0 0 0 10 41 0 0 0 0 0 0 0 0 0 0 0 0 90 55 0 0 0 0 0 0 46 0 0 63 0 0 0 0 0 0 0 0 0 40 0 0 0 0 0 0 0 0 0 0 0 0 0 0 0 0 0 73 0 0 0 43 0 0 0 33 0 0 92 0 0 0 0 0 0 0 0 0 63 0 55 64 0 0 0 5 0 35 67 0 0
0 0 0 0 51 0 0 0 0 44 0 0 0 0 0 0 0 0 0 0 0 0 0 0 0 0 0 0 0 0 0 8 62 0 0 0 41 0 0 0 0 0 93 0 0 0 0 0 0 0 0 0 0 0 0 0 0 78 0 0 1 0 0 0 0 0 0 0 0 0 0 0 0 0 0 0 0 0 3 0 13 0 0 0 5 0 0 0 0 0 0 0 0 0 60 0 0 0 0 0 0 0 76 0 0 0 50 49 0 0 0 0 0 0 0 0 48 0 0 0 0 0 0 0 0 0 0 0 0 4 0 0 56 14 0 0 0 0 0 0 0 75 0 0 67 0 0 0 0 60
2 0 0 0 0 0 0 0 13 28 0 0 0 0 53 0 0 0 0 0 18 0 0 0 0 0 0 0 59 0 0 0 0 0 65 0 0 0 0 0 68 0 0 36 0 0 0 0 0 0 0 17 24 0 0 0 0 0 0 0 0 0 0 0 0 0 0 0 0 0 34 0 0 0 0 0 0 0 0 0 0 0 1 56 0 0 63 73 0 0 4 0 0 0 0 0 41 6 0 0 0 0 17 0 7 0 18 0 0 0 0 0 0 4 6 0 0 0 0 0 0 0 0 0 0 0 0 0 0 0 0 0 0 2 0 0 0 0 0 0 0 0 0 16 2 28 0 0 0 0
0 0 0 0 0 0 0 0 0 0 75 0 0 0 6 0 0 0 0 0 0 0 0 0 0 0 0 0 0 0 0 0 0 0 0 0 0 0 0 0 0 38 0 0 0 0 0 29 0 0 0 0 0 0 0 0 0 2 0 0 0 0 19 0 0 0 0 0 0 12 0 0 18 0 0 0 0 9 22 0 0 0 17 0 0 0 0 0 0 0 0 0 0 0 0 0 0 0 0 0 0 10 0 0 4 0 4 18 0 0 0 0 0 69 0 0 0 0 0 0 0 0 0 0 0 0 0 0 0 0 0 0 0 0 10 50 83 0 0 0 0 0 0 0 0 0 0 0 0 0
0 0 0 0 0 0 0 0 0 0 0 0 0 0 2 0 0 0 0 0 0 0 0 0 0 0 0 0 0 0 0 0 0 0 0 0 0 0 0 0 3 0 0 0 0 0 0 0 0 0 0 0 0 0 0 0 0 0 10 0 0 0 0 0 0 0 0 0 0 0 0 0 0 0 0 0 0 0 0 18 0 0 0 0 0 0 0 0 0 0 0 4 0 7 0 0 0 0 0 0 0 10 0 0 0 0 0 0 0 3 0 15 0 0 46 0 45 0 67 0 0 0 0 0 0 58 0 0 3 6 0 0 2 0 0 0 0 37 0 24 0 0 0 0 0 0 0 0 0 0
35 0 0 3 0 0 0 0 71 0 0 0 0 0 0 0 2 66 0 0 0 16 0 0 0 0 0 0 0 0 71 10 0 0 0 0 0 0 13 0 0 0 63 0 0 3 0 0 0 0 0 0 0 0 0 0 0 0 0 0 0 0 0 0 0 0 0 0 0 0 0 0 5 0 40 0 0 0 6 0 0 0 0 0 0 0 52 0 0 0 0 43 0 1 0 0 0 0 6 0 28 5 0 0 0 0 0 0 40 0 0 0 0 0 0 0 0 0 0 10 7 0 0 0 0 13 0 0 0 0 36 0 0 0 82 0 15 0 28 2 0 0 0 0 0 41 0 0 0 0
0 0 0 0 49 0 0 0 60 0 0 0 0 0 0 0 52 0 0 0 0 0 0 0 0 25 0 4 0 19 0 0 0 0 0 0 0 0 0 0 0 0 0 0 0 0 0 0 0 0 26 0 0 0 0 56 0 13 0 0 23 0 0 0 0 18 0 0 0 5 0 0 0 0 0 0 0 0 0 0 0 0 0 0 1 0 0 85 0 0 0 0 34 0 0 1 0 0 0 0 0 14 0 0 30 0 0 0 0 0 0 0 0 0 0 9 0 54 0 27 0 0 0 0 0 0 0 0 0 0 0 0 0 0 0 0 0 0 0 0 0 0 0 0 7 0 36 0 0 0
0 38 0 0 0 0 0 0 0 0 0 0 0 0 0 0 0 0 28 0 0 0 0 0 0 0 49 0 0 0 0 0 0 0 0 21 0 0 0 0 0 0 0 23 5 0 20 8 0 0 0 0 0 0 1 0 0 0 0 0 0 0 0 0 0 0 0 58 0 0 0 0 39 0 0 0 0 0 1 0 17 0 49 0 0 0 0 0 0 0 8 0 0 0 0 51 13 0 0 0 0 0 0 0 0 31 0 0 0 21 0 0 0 0 0 0 0 0 0 0 33 13 0 0 0 0 0 0 0 0 0 0 0 1 43 0 0 6 0 0 0 2 0 0 0 0 0 0 30 0
0 2 0 0 6 0 17 12 52 0 0 0 47 0 0 0 0 0 0 0 0 0 0 0 0 0 0 0 0 39 48 0 0 0 0 0 0 0 0 55 0 0 0 0 0 0 0 0 0 0 25 0 0 0 0 0 0 0 0 0 0 0 0 0 0 60 0 38 0 0 0 0 0 30 0 0 0 0 9 0 0 0 0 0 0 0 0 0 0 0 0 0 0 0 0 0 0 0 38 0 0 0 38 0 0 0 0 22 0 0 0 0 0 0 0 0 0 0 0 0 0 0 16 0 0 0 0 7 0 0 0 0 5 0 0 0 0 0 66 13 0 20 0 0 0 0 0 0 0 0
14 0 0 29 0 0 0 0 0 0 32 0 0 0 0 4 0 0 0 0 55 0 0 0 0 0 0 0 0 0 0 0 56 0 0 0 0 0 6 0 86 0 0 0 0 0 0 0 44 0 34 0 0 0 0 1 0 0 38 0 5 0 48 0 0 0 0 0 0 0 0 0 34 0 0 0 0 0 0 0 0 0 0 61 0 65 0 0 0 0 0 0 17 0 0 0 0 0 34 43 0 0 0 0 0 13 0 0 0 17 0 0 0 0 0 0 0 0 0 31 0 0 0 0 0 0 0 21 0 0 1 0 5 0 0 0 0 0 47 31 0 6 0 68 0 0 0 0 5 0
0 0 0 0 0 0 0 0 7 0 0 0 0 0 0 0 0 3 1 66 0 0 0 0 0 5 0 0 0 0 0 0 0 0 0 0 0 0 0 0 0 0 0 0 1 3 58 0 0 0 0 32 39 0 0 0 0 0 0 0 1 0 0 0 0 9 0 44 0 0 0 0 0 0 5 0 0 0 0 0 0 0 0 0 0 0 0 0 0 0 0 9 0 1 0 11 0 0 0 0 5 0 0 0 0 0 0 0 0 0 0 0 0 0 0 0 0 0 0 7 0 0 0 0 0 0 19 0 0 0 0 0 38 0 0 0 0 0 0 0 0 0 0 0 0 0 0 0 0 0
0 0 0 0 0 0 0 0 0 0 13 0 0 0 0 0 11 0 0 0 0 54 53 11 0 40 0 0 0 0 0 0 0 0 0 0 0 3 0 0 2 0 0 0 0 0 2 0 0 0 0 0 0 0 0 0 0 0 0 0 0 0 25 0 46 0 5 0 0 0 0 16 0 8 0 0 0 0 0 17 0 0 0 0 0 0 0 0 0 0 0 0 0 0 8 0 0 0 0 0 56 0 0 0 6 0 0 0 13 0 0 0 0 0 0 0 0 0 0 56 0 0 0 0 0 0 0 0 0 0 0 0 0 0 0 0 0 92 0 0 0 0 0 0 0 0 0 0 0 3
0 0 0 0 0 0 12 0 0 0 0 0 0 0 0 0 0 0 0 0 0 3 0 4 0 0 0 0 0 0 0 0 75 0 0 0 6 0 6 0 0 0 0 0 0 0 0 0 0 19 0 0 0 0 0 0 20 0 0 0 0 0 8 0 0 0 0 6 0 0 0 0 0 16 0 0 0 0 0 0 0 0 0 0 0 0 0 3 0 0 0 0 0 0 0 61 7 0 59 0 0 0 0 0 0 0 0 0 0 0 0 0 0 0 0 0 0 0 0 0 0 0 0 0 0 0 0 11 0 0 64 0 0 0 0 0 0 0 0 0 0 1 25 0 0 0 20 0 0 0
0 0 0 0 14 0 0 16 0 0 0 0 0 0 34 0 0 0 0 0 0 0 0 0 0 0 0 0 0 20 0 0 0 0 40 0 0 0 0 0 0 0 2 0 0 0 18 0 0 0 0 0 0 43 0 38 3 0 0 0 0 0 10 0 0 0 34 0 0 0 0 0 0 0 0 0 6 0 0 0 0 0 0 21 0 0 20 0 0 0 0 0 0 26 0 0 0 0 3 0 27 0 0 3 7 0 0 0 4 0 0 0 4 0 0 0 0 0 53 9 0 4 0 33 0 49 0 0 0 10 0 0 0 7 0 9 0 0 0 0 0 0 32 0 0 0 0 0 0 0
0 0 0 0 0 5 0 0 0 0 0 0 0 0 0 0 0 0 0 0 0 0 0 0 0 0 0 0 0 0 0 0 0 0 0 0 23 0 0 0 0 0 0 5 0 0 61 2 0 0 0 0 0 0 0 9 0 7 16 0 0 0 0 78 0 0 0 0 0 37 0 0 0 26 0 0 4 15 0 0 0 0 0 83 0 0 0 0 0 18 0 0 0 0 0 0 0 0 0 0 0 0 0 0 0 0 0 0 0 0 0 0 0 0 10 0 0 0 0 0 0 0 0 0 2 0 0 0 0 0 0 0 0 0 0 0 16 0 0 0 0 0 11 0 0 0 0 0 0 0
0 0 0 0 0 0 0 35 0 0 0 0 0 9 0 0 0 0 73 0 0 30 0 0 0 0 0 0 6 0 0 0 0 0 0 0 0 0 0 0 0 0 0 0 0 0 0 0 20 0 0 9 3 0 0 33 0 0 0 0 0 0 0 0 0 0 0 0 0 0 0 0 0 0 0 0 0 0 0 0 0 0 15 0 0 0 0 0 0 0 0 0 0 0 0 1 0 0 9 49 0 0 0 0 0 0 0 0 0 0 0 0 0 0 0 0 0 10 0 0 0 0 0 0 0 0 0 0 0 0 0 0 0 0 10 0 0 49 0 0 34 0 0 0 7 0 0 0 0 0
0 0 0 0 1 0 0 0 0 0 0 0 0 8 0 0 0 0 0 0 0 0 0 0 0 0 0 0 0 0 0 0 0 0 0 0 0 0 11 0 0 0 11 0 42 0 0 1 0 0 0 0 0 0 0 0 5 0 0 0 0 0 0 0 0 47 0 0 0 0 0 1 0 0 0 2 0 0 62 0 0 11 0 0 0 0 0 0 0 0 0 17 0 0 0 0 0 63 0 0 0 0 0 0 0 0 0 4 0 0 0 0 0 39 0 0 9 0 0 0 0 0 0 0 0 0 0 0 0 0 0 0 0 0 0 0 0 0 0 0 0 24 68 0 0 0 26 0 43 0
0 0 0 0 0 0 0 0 0 0 0 0 0 54 0 0 0 0 0 0 0 0 0 0 0 0 0 85 0 14 0 0 0 0 0 0 0 29 0 0 0 1 0 0 0 0 0 0 0 0 0 0 0 0 0 0 0 14 0 0 0 0 0 0 0 0 0 0 0 15 0 33 0 0 0 0 0 0 0 0 0 0 0 0 0 0 0 0 0 32 0 0 0 0 0 37 0 0 0 0 0 0 0 0 0 0 69 0 0 0 0 0 0 0 0 0 30 0 47 0 0 58 0 0 0 0 0 0 0 9 0 0 0 0 0 0 0 0 53 0 0 0 0 0 0 0 0 0 0 7
0 0 0 0 0 0 30 0 30 0 21 0 9 0 0 0 0 0 0 0 0 0 0 0 0 0 0 8 0 0 0 0 0 0 0 0 1 8 0 0 57 0 0 0 0 0 0 13 49 0 0 0 0 0 0 0 0 0 64 0 0 0 0 0 0 27 0 0 0 0 50 0 0 0 0 0 16 89 0 29 0 0 0 0 0 0 0 0 0 0 0 0 0 0 7 0 0 26 0 0 0 0 0 9 0 0 0 0 19 0 0 0 0 0 8 0 0 0 0 0 0 0 0 0 7 29 23 0 0 0 0 0 0 77 0 0 0 0 0 0 0 0 0 0 0 40 0 1 0 0
0 0 0 0 0 0 0 0 0 25 0 88 1 62 11 0 0 0 0 0 0 71 0 0 0 0 37 0 11 0 0 59 0 0 0 0 0 0 0 36 0 0 0 0 0 0 0 0 0 0 0 0 0 0 0 0 0 0 0 0 0 0 0 0 9 0 0 0 0 0 0 0 0 0 16 0 0 0 0 0 0 0 0 0 0 0 0 0 3 0 0 0 0 3 0 0 0 0 0 0 0 0 0 0 0 39 0 0 5 3 0 58 0 0 0 0 0 0 0 0 3 0 0 0 0 0 0 0 0 0 0 0 0 0 0 0 0 0 0 0 0 0 0 0 1 0 3 11 3 14
0 0 0 0 0 0 0 0 0 0 0 0 0 0 0 0 0 0 0 0 0 0 0 0 0 0 0 0 0 0 0 0 0 0 12 0 0 0 0 0 0 0 0 0 0 0 0 0 0 0 0 0 0 0 0 0 0 0 0 39 0 0 0 2 0 0 0 0 0 0 0 0 0 0 0 0 0 54 54 0 0 0 0 0 0 23 0 0 7 0 0 0 0 0 0 0 0 0 1 0 0 0 0 0 0 0 0 0 0 0 0 0 0 0 0 0 13 0 0 0 30 0 0 0 21 0 0 81 0 0 0 0 0 0 0 0 0 23 0 35 33 0 0 0 0 0 34 57 0 0
0 0 0 0 38 0 0 0 0 9 0 0 0 0 0 0 0 0 0 0 0 0 0 0 0 0 0 0 0 0 0 0 29 0 0 0 5 0 0 0 0 0 48 0 0 0 0 0 0 0 0 0 0 0 0 0 0 25 0 0 0 0 0 0 0 0 0 0 0 0 0 0 0 0 0 0 0 0 0 0 6 0 0 0 0 0 0 0 0 0 0 0 0 0 59 0 0 0 0 0 0 0 73 0 0 0 36 47 0 0 0 0 0 0 0 0 28 0 0 0 0 0 0 0 0 0 0 0 0 3 0 0 2 4 0 0 0 0 0 0 0 7 0 0 31 0 0 0 0 43
